20
9	240	165	78	55
15	66	170	41	26
22	179	155	75	99
19	263	155	27	3
25	114	130	1	16
19	164	195	10	79
10	198	168	62	49
23	47	161	64	83
24	128	213	60	31
14	74	178	87	69
4	273	200	53	44
26	174	196	54	58
6	20	217	99	63
4	276	167	70	92
7	181	121	6	8
5	46	128	12	84
11	64	211	88	98
30	118	206	88	67
3	21	212	5	93
7	272	190	79	43
